1
1000
501
499 1
499 1
499 1
498 1
495 1
494 1
494 1
494 1
492 1
492 1
492 1
492 1
491 1
490 1
489 1
489 1
488 1
488 1
488 1
487 1
487 1
485 1
484 1
484 1
482 1
482 1
482 1
481 1
481 1
481 1
480 1
479 1
479 1
478 1
478 1
477 1
477 1
476 1
476 1
475 1
475 1
471 1
471 1
470 1
470 1
469 1
469 1
468 1
466 1
466 1
465 1
464 1
464 1
462 1
462 1
462 1
462 1
462 1
461 1
460 1
459 1
457 1
455 1
455 1
454 1
454 1
453 1
451 1
449 1
449 1
447 1
447 1
445 1
443 1
443 1
442 1
441 1
437 1
436 1
434 1
434 1
432 1
432 1
431 1
431 1
430 1
429 1
429 1
429 1
429 1
429 1
426 1
426 1
425 1
424 1
423 1
421 1
421 1
420 1
418 1
418 1
416 1
416 1
415 1
414 1
413 1
412 1
412 1
412 1
411 1
411 1
411 1
410 1
409 1
409 1
406 1
405 1
404 1
403 1
401 1
400 1
400 1
398 1
398 1
397 1
397 1
396 1
396 1
396 1
395 1
394 1
391 1
389 1
389 1
389 1
389 1
386 1
385 1
383 1
383 1
381 1
379 1
379 1
378 1
377 1
377 1
376 1
376 1
375 1
375 1
375 1
373 1
373 1
372 1
371 1
370 1
369 1
368 1
367 1
367 1
365 1
364 1
363 1
363 1
361 1
360 1
359 1
359 1
358 1
358 1
357 1
356 1
356 1
356 1
354 1
354 1
353 1
352 1
352 1
351 1
351 1
350 1
350 1
348 1
347 1
347 1
344 1
343 1
342 1
341 1
341 1
340 1
340 1
340 1
339 1
338 1
337 1
337 1
337 1
336 1
336 1
335 1
334 1
333 1
333 1
333 1
330 1
328 1
328 1
327 1
325 1
325 1
324 1
324 1
324 1
323 1
323 1
322 1
321 1
320 1
319 1
319 1
319 1
318 1
318 1
318 1
317 1
317 1
316 1
316 1
316 1
316 1
315 1
315 1
312 1
312 1
312 1
312 1
311 1
311 1
310 1
310 1
309 1
309 1
309 1
309 1
309 1
308 1
308 1
307 1
306 1
306 1
304 1
304 1
304 1
304 1
304 1
304 1
303 1
303 1
302 1
299 1
299 1
299 1
299 1
298 1
298 1
297 1
296 1
296 1
296 1
296 1
295 1
295 1
294 1
294 1
292 1
292 1
291 1
290 1
290 1
289 1
289 1
289 1
289 1
288 1
288 1
288 1
287 1
286 1
285 1
285 1
285 1
283 1
283 1
283 1
283 1
282 1
282 1
282 1
282 1
281 1
281 1
280 1
280 1
279 1
279 1
279 1
279 1
278 1
278 1
277 1
277 1
277 1
277 1
277 1
275 1
275 1
274 1
274 1
274 1
274 1
274 1
274 1
273 1
273 1
273 1
273 1
272 1
272 1
272 1
272 1
272 1
272 1
272 1
272 1
271 1
271 1
271 1
271 1
271 1
270 1
269 1
269 1
269 1
269 1
268 1
268 1
268 1
268 1
268 1
267 1
267 1
267 1
267 1
267 1
267 1
267 1
266 1
266 1
266 1
265 1
265 1
265 1
265 1
265 1
265 1
265 1
265 1
265 1
265 1
264 1
264 1
264 1
264 1
264 1
264 1
264 1
264 1
264 1
264 1
264 1
263 1
263 1
263 1
263 1
263 1
263 1
263 1
263 1
263 1
262 1
262 1
261 1
261 1
261 1
261 1
261 1
261 1
260 1
260 1
260 1
260 1
260 1
259 1
259 1
259 1
259 1
259 1
259 1
259 1
258 1
258 1
258 1
258 1
258 1
258 1
258 1
258 1
258 1
257 1
257 1
257 1
257 1
257 1
257 1
257 1
257 1
256 1
256 1
256 1
256 1
256 1
256 1
255 1
255 1
255 1
255 1
255 1
255 1
255 1
255 1
255 1
255 1
255 1
254 1
254 1
254 1
254 1
254 1
254 1
254 1
254 1
254 1
254 1
254 1
254 1
254 1
253 1
253 1
253 1
253 1
253 1
253 1
252 1
252 1
252 1
252 1
252 1
252 1
252 1
252 1
252 1
252 1
252 1
251 1
251 1
251 1
251 1
251 1
251 1
251 1
251 1
251 1
251 1
251 1
251 1
251 1
251 1
250 1
250 1
250 1
250 1
250 1
250 1
250 1
250 1
250 1
250 1
250 1
250 1
